89 117
21 79
25 95
26 113
31 82
33 72
36 115
40 88
43 99
50 130
commit
136 40
85 36
86 43
117 73
commit
39 89
88 94
75 105
115 121
99 114
commit
35 85
73 106
65 93
94 19
97 86
commit
114 61
121 116
106 125
41 136
commit
19 64
105 39
84 35
61 7
13 67
113 140
commit
116 28
20 59
24 97
93 42
66 41
125 33
commit
42 92
72 91
111 66
128 84
59 3
7 69
commit
91 45
96 24
64 141
28 70
4 149
79 74
commit
69 23
107 65
122 124
131 20
10 54
74 34
140 31
30 104
commit
58 96
45 15
124 123
3 101
8 26
67 25
29 128
commit
129 29
134 13
60 8
83 131
98 132
141 150
14 58
commit
95 133
150 87
70 80
23 57
34 30
44 107
48 112
commit
80 22
135 148
54 122
92 137
112 60
55 134
commit
87 142
143 135
6 98
123 71
18 110
82 120
52 44
53 21
commit
127 53
138 48
148 109
2 83
130 118
133 18
commit
100 2
120 1
149 143
132 68
118 127
137 147
commit
22 51
146 4
104 9
147 145
81 138
commit
142 17
16 50
27 81
49 10
commit
109 144
1 119
37 52
56 111
102 6
126 100
commit
57 46
145 63
47 55
62 126
commit
110 139
101 32
76 49
108 37
commit
71 90
77 102
144 12
commit
38 76
commit
90 5
commit
11 38
103 108
commit
78 11
commit
commit
