25 55
65 66
42 64
60 70
commit
71 60
41 42
66 59
55 18
commit
18 50
43 41
59 14
70 20
commit
64 22
69 71
11 65
23 56
24 49
31 25
commit
38 11
10 31
56 43
36 69
commit
22 61
20 37
14 19
commit
47 36
15 57
61 21
35 53
commit
50 24
28 62
37 15
63 23
commit
58 10
21 74
1 73
5 47
9 39
commit
49 16
57 13
62 1
32 9
commit
13 54
73 33
39 72
commit
8 35
27 52
29 48
44 32
commit
3 44
53 7
48 28
commit
72 12
45 29
commit
52 8
40 3
33 2
commit
17 40
34 46
commit
6 51
46 27
commit
30 68
7 26
commit
4 30
commit
68 6
commit
67 4
commit
51 75
commit
commit
